row=8;
column=8;
Board=[|4,6,0,0,0,6,3,0|0,6,0,0,8,0,4,6|0,0,1,8,1,8,0,0|4,0,0,1,8,1,8,8|5,1,8,3,5,8,0,8|4,0,7,8,0,0,8,0|0,0,0,0,6,4,2,8|0,8,8,0,8,8,0,0|];
right = [4,4,4,2,1,4,4,4];
bottom = [4,4,4,4,2,2,3,4];
